[[85, 94, 93, 92, 91, 82, 83, 84, 73, 76, 75, 74, 65, 66, 67, 68, 59, 58, 49, 57, 56, 64, 55, 46, 47, 48, 39, 40, 38, 37, 28, 29], [30, 32, 31, 23, 22, 21, 13, 19, 20, 11, 12, 10, 2, 3, 4, 14, 5, 6, 7, 8, 9, 15, 16, 17, 18, 25, 24, 26, 27], [35, 36, 34, 44, 45, 43, 33, 42, 41, 50, 51, 60, 52, 53, 54, 63, 62, 61, 72, 70, 71, 81, 80, 69, 78, 77, 79, 88, 89, 90, 99, 98, 97, 96, 87, 95, 86]]